64 9 11 30 72 97 20 31 71 88 5 54 24 8 34 57 9 48 63 66 63 84 10 32 60 36 43 98 64 8 19 96 96 49 7 40 2 46 75 17 46 60 34 98 44 2 30 72 95 31 87 68 70 12 2 88 17 96 10 82 71 6 96 98 16 86 18 30 32 61 5 12 17 69 86 68 59 62 85 100 56 73 66 42 27 84 95 46 18 38 38 79 30 55 75 84 77 57 57 37 